NAME : morphed18-2-30
COMMENT : Generated using the function morphInstances from the R-package netgen (Bossek,2015) - Number of clusters: 2 Alpha: 0.5
TYPE : TSP
DIMENSION : 18
EDGE_WEIGHT_TYPE : EUC_2D
NODE_COORD_SECTION
1 8.4050186481 64.0926297975
2 49.0421750128 33.5305258263
3 44.8500258377 17.3168800577
4 24.9234106699 63.0133815542
5 45.4018926384 7.4178607855
6 14.1988828158 43.5870329269
7 74.4701257838 20.6715614019
8 18.8588082627 41.8944789761
9 81.4128860418 35.0171913945
10 9.0438944068 45.0740167459
11 3.3244092395 82.3065134536
12 23.9589546483 57.0301154387
13 29.5224025095 67.5941647367
14 83.851524456 16.0857606919
15 19.5395478269 51.2080889295
16 79.2294145485 42.2304639131
17 32.2446735177 28.8427641217
18 70.5122020188 48.2322752206
EOF
